p cnf 125 310
1 21 0
5 25 0
9 29 0
13 33 0
17 37 0
2 22 0
6 26 0
10 30 0
14 34 0
18 38 0
3 23 0
7 27 0
11 31 0
15 35 0
19 39 0
4 24 0
8 28 0
12 32 0
16 36 0
20 40 0
-41 -1 -22 -3 -4 0
-42 -5 -26 -7 -8 0
-43 -9 -30 -11 -12 0
-44 -13 -34 -15 -16 0
-45 -17 -38 -19 -20 0
-41 -21 -2 -3 -4 0
-42 -25 -6 -7 -8 0
-43 -29 -10 -11 -12 0
-44 -33 -14 -15 -16 0
-45 -37 -18 -19 -20 0
-41 -21 -2 -3 -24 0
-42 -25 -6 -7 -28 0
-43 -29 -10 -11 -32 0
-44 -33 -14 -15 -36 0
-45 -37 -18 -19 -40 0
-41 -21 -22 -3 -4 0
-42 -25 -26 -7 -8 0
-43 -29 -30 -11 -12 0
-44 -33 -34 -15 -16 0
-45 -37 -38 -19 -20 0
-41 -21 -22 -3 -24 0
-42 -25 -26 -7 -28 0
-43 -29 -30 -11 -32 0
-44 -33 -34 -15 -36 0
-45 -37 -38 -19 -40 0
-41 -21 -22 -23 -4 0
-42 -25 -26 -27 -8 0
-43 -29 -30 -31 -12 0
-44 -33 -34 -35 -16 0
-45 -37 -38 -39 -20 0
46 47 48 49 50 0
51 52 53 54 55 0
56 57 58 59 60 0
61 62 63 64 65 0
71 72 73 74 75 0
76 77 78 79 80 0
81 82 83 84 85 0
96 97 98 99 100 0
101 102 103 104 105 0
121 122 123 124 125 0
-46 41 0
-47 42 0
-48 43 0
-49 44 0
-50 45 0
-51 41 0
-52 42 0
-53 43 0
-54 44 0
-55 45 0
-56 41 0
-57 42 0
-58 43 0
-59 44 0
-60 45 0
-61 41 0
-62 42 0
-63 43 0
-64 44 0
-65 45 0
-71 41 0
-72 42 0
-73 43 0
-74 44 0
-75 45 0
-76 41 0
-77 42 0
-78 43 0
-79 44 0
-80 45 0
-81 41 0
-82 42 0
-83 43 0
-84 44 0
-85 45 0
-96 41 0
-97 42 0
-98 43 0
-99 44 0
-100 45 0
-101 41 0
-102 42 0
-103 43 0
-104 44 0
-105 45 0
-121 41 0
-122 42 0
-123 43 0
-124 44 0
-125 45 0
-46 1 0
-47 5 0
-48 9 0
-49 13 0
-50 17 0
-46 2 0
-47 6 0
-48 10 0
-49 14 0
-50 18 0
-46 3 0
-47 7 0
-48 11 0
-49 15 0
-50 19 0
-46 4 0
-47 8 0
-48 12 0
-49 16 0
-50 20 0
-51 1 0
-52 5 0
-53 9 0
-54 13 0
-55 17 0
-51 2 0
-52 6 0
-53 10 0
-54 14 0
-55 18 0
-51 3 0
-52 7 0
-53 11 0
-54 15 0
-55 19 0
-51 24 0
-52 28 0
-53 32 0
-54 36 0
-55 40 0
-56 1 0
-57 5 0
-58 9 0
-59 13 0
-60 17 0
-56 2 0
-57 6 0
-58 10 0
-59 14 0
-60 18 0
-56 23 0
-57 27 0
-58 31 0
-59 35 0
-60 39 0
-56 4 0
-57 8 0
-58 12 0
-59 16 0
-60 20 0
-61 1 0
-62 5 0
-63 9 0
-64 13 0
-65 17 0
-61 2 0
-62 6 0
-63 10 0
-64 14 0
-65 18 0
-61 23 0
-62 27 0
-63 31 0
-64 35 0
-65 39 0
-61 24 0
-62 28 0
-63 32 0
-64 36 0
-65 40 0
-71 1 0
-72 5 0
-73 9 0
-74 13 0
-75 17 0
-71 22 0
-72 26 0
-73 30 0
-74 34 0
-75 38 0
-71 3 0
-72 7 0
-73 11 0
-74 15 0
-75 19 0
-71 24 0
-72 28 0
-73 32 0
-74 36 0
-75 40 0
-76 1 0
-77 5 0
-78 9 0
-79 13 0
-80 17 0
-76 22 0
-77 26 0
-78 30 0
-79 34 0
-80 38 0
-76 23 0
-77 27 0
-78 31 0
-79 35 0
-80 39 0
-76 4 0
-77 8 0
-78 12 0
-79 16 0
-80 20 0
-81 1 0
-82 5 0
-83 9 0
-84 13 0
-85 17 0
-81 22 0
-82 26 0
-83 30 0
-84 34 0
-85 38 0
-81 23 0
-82 27 0
-83 31 0
-84 35 0
-85 39 0
-81 24 0
-82 28 0
-83 32 0
-84 36 0
-85 40 0
-96 21 0
-97 25 0
-98 29 0
-99 33 0
-100 37 0
-96 2 0
-97 6 0
-98 10 0
-99 14 0
-100 18 0
-96 23 0
-97 27 0
-98 31 0
-99 35 0
-100 39 0
-96 4 0
-97 8 0
-98 12 0
-99 16 0
-100 20 0
-101 21 0
-102 25 0
-103 29 0
-104 33 0
-105 37 0
-101 2 0
-102 6 0
-103 10 0
-104 14 0
-105 18 0
-101 23 0
-102 27 0
-103 31 0
-104 35 0
-105 39 0
-101 24 0
-102 28 0
-103 32 0
-104 36 0
-105 40 0
-121 21 0
-122 25 0
-123 29 0
-124 33 0
-125 37 0
-121 22 0
-122 26 0
-123 30 0
-124 34 0
-125 38 0
-121 23 0
-122 27 0
-123 31 0
-124 35 0
-125 39 0
-121 24 0
-122 28 0
-123 32 0
-124 36 0
-125 40 0


